row=9;
column=9;
Board=[|9,2,8,6,0,5,0,0,3|0,4,0,2,0,9,0,7,0|5,1,7,0,3,8,0,0,6|2,5,0,8,0,6,0,9,0|0,6,9,1,2,3,0,5,8|8,3,4,0,0,7,6,1,2|1,9,5,0,8,2,0,6,4|0,8,0,7,0,0,0,3,0|3,0,0,0,0,0,2,8,0|];
Region=[|1,1,1,2,2,2,3,3,3|1,1,1,2,2,2,3,3,3|4,1,1,2,2,5,6,3,3|4,1,4,2,5,5,6,3,6|4,4,4,5,5,5,6,6,6|4,4,4,5,5,5,6,6,6|7,7,8,8,8,8,9,9,9|7,7,7,8,8,8,9,9,9|7,7,7,7,8,8,9,9,9|];
OE=[|1,0,0,0,1,1,1,0,1|0,0,1,0,1,1,0,1,1|1,1,1,0,1,0,1,0,0|0,1,1,0,0,0,1,1,1|1,0,1,1,0,1,0,1,0|0,1,0,1,1,1,0,1,0|1,1,1,1,0,0,1,0,0|0,0,0,1,0,1,1,1,1|1,1,0,1,1,0,0,0,1|];
